NAME: instance_2412
TYPE: TSP
DIMENSION: 20
EDGE_WEIGHT_TYPE: EUC_2D
NODE_COORD_SECTION
0 96.19 4.54
1 51.64 77.55
2 99.79 10.63
3 89.99 32.59
4 7.90 72.09
5 18.77 24.53
6 25.65 56.50
7 66.28 36.97
8 74.65 51.53
9 54.58 32.30
10 18.43 96.64
11 9.88 62.78
12 57.46 13.00
13 72.26 53.26
14 42.26 80.58
15 54.69 87.52
16 26.24 76.36
17 22.57 61.27
18 27.77 54.39
19 46.67 54.25
EOF
